p cnf 12 21
12 8 5 0
12 -6 -2 0
-11 -9 4 0
11 9 -2 0
11 -7 -2 0
11 -5 -1 0
-10 -9 2 0
10 -5 -4 0
-10 -3 2 0
-9 7 -4 0
-9 6 4 0
-9 6 -3 0
-9 -4 -3 0
-8 -6 -4 0
8 6 -2 0
-8 -6 1 0
7 6 -3 0
7 -6 -2 0
-6 5 2 0
-4 3 2 0
3 -2 -1 0
